Route #1: 0 28 12 80 29 76 69 52 89 6 94 96 99 93 95 97 87 42 37 85 84 61 16 38 43 15 57 2 21 40 53 0
Route #2: 0 26 50 1 51 9 78 79 3 77 68 24 54 55 25 4 39 67 23 56 75 41 22 74 72 73 13 0
Route #3: 0 58 59 92 98 100 91 14 44 86 17 45 8 83 5 60 18 82 7 88 62 10 63 90 32 30 31 27 0
Route #4: 0 48 19 47 46 36 49 64 11 70 20 66 65 71 35 34 81 33 0
Cost 862:
